189792.04,45.96,56.99
161617.95,53.97,66.93
158484.16,55.04,68.25
170560.79,51.14,63.42
173867.49,50.17,62.21
176525.82,49.41,61.28
169095.44,51.58,63.97
169681.57,51.41,63.75
196992.75,44.28,54.91
166235.89,52.47,65.07
160994.07,54.18,67.19
173784.81,50.19,62.24
198380.09,43.97,54.53
191353.95,45.58,56.53
160490.18,54.35,67.4
179551.47,48.58,60.24
168196.89,51.86,64.31
167657.31,52.03,64.52
176257.26,49.49,61.37
188795.76,46.2,57.29
